c A SAT instance generated from a 3-CNF formula that had 45 clauses and 10 variables
p cnf 10 45
3 9 -6 0
5 6 8 0
-6 2 10 0
2 9 6 0
-1 5 -8 0
-3 1 4 0
-1 -10 -2 0
8 -9 10 0
-9 -10 -5 0
1 -10 4 0
-5 7 2 0
10 9 4 0
8 -6 -3 0
10 5 -9 0
6 -7 8 0
-10 -8 3 0
2 -3 6 0
-10 9 -6 0
4 -1 -10 0
-2 -4 -1 0
-10 -6 -7 0
5 1 -7 0
4 -2 -7 0
-1 4 -2 0
-3 10 9 0
-10 9 1 0
-4 1 7 0
-5 10 1 0
-7 4 -3 0
-2 -3 -4 0
7 -6 3 0
-4 -7 -3 0
7 4 5 0
6 10 1 0
-7 1 -9 0
-3 -4 8 0
-8 -6 -9 0
4 -1 -8 0
1 2 -7 0
-10 -8 -2 0
-2 6 -9 0
-10 -5 -8 0
5 3 4 0
6 -3 7 0
1 2 8 0
%
0

40 99 11 6 20 34 68 22 93 59
